@relation versao03-weka.filters.unsupervised.attribute.ReplaceMissingValues-weka.filters.unsupervised.attribute.ReplaceMissingValues-weka.filters.unsupervised.attribute.ReplaceMissingValues-weka.filters.unsupervised.attribute.Remove-weka.filters.unsupervised.attribute.Normalize-S1.0-T0.0-weka.filters.unsupervised.attribute.InterquartileRange-Rfirst-last-O3.0-E6.0-weka.filters.unsupervised.attribute.Remove-R10

@attribute area_m2 numeric
@attribute bairro_valorizacao {baixo,alto,medio}
@attribute idade_imovel numeric
@attribute vagas_estacionamento numeric
@attribute distancia_centro_km numeric
@attribute fluxo_pessoas_dia numeric
@attribute taxa_vacancia_regiao numeric
@attribute tipo_imovel {loja,sala_comercial,escritorio,galpao}
@attribute padrao_construtivo {medio,baixo,alto}
@attribute preco numeric
@attribute Outlier {no,yes}
@attribute ExtremeValue {no,yes}

@data
0.032554,baixo,0.101449,0.230769,0.619574,0.042331,0.493776,loja,medio,2204.15,no,no
0.009957,baixo,0.202899,0.153846,0.386346,0.043709,0.782158,sala_comercial,baixo,850,no,no
0.013413,alto,0.144928,0,0.135754,0.34554,0.165629,escritorio,baixo,7952.65,no,no
0.194503,baixo,0.188406,0.120447,0.434491,0.10632,0.620332,galpao,medio,26588.6,no,no
0.043637,medio,0.608696,0,0.407656,0.184924,0.072268,loja,baixo,6693.03,no,no
0.000007,alto,0.115942,0,0.05959,0.240599,0.115145,sala_comercial,medio,6526.62,no,no
0.052189,alto,0.086957,0,0.248224,0.184924,0.043914,loja,medio,13938.9,no,no
0.016287,medio,0.130435,0,0.372928,0.101201,0.495851,sala_comercial,medio,850,no,no
0.049784,medio,0.072464,0,0.307419,0.202402,0.557054,loja,alto,11100.03,no,no
0.060998,medio,0.014493,0,0.196527,0.195117,0.432227,escritorio,baixo,5182.54,no,no
0.006072,baixo,0.144928,0.076923,0.556827,0.049222,0.596473,escritorio,medio,850,no,no
0.225354,medio,0.15942,0.230769,0.479479,0.379602,0.259336,galpao,baixo,91788.76,yes,no
0.000007,baixo,0.101449,0,0.466456,0.070093,0.418396,loja,medio,850,no,no
0.029335,medio,0.072464,0.076923,0.364122,0.167553,0.304288,loja,baixo,4616.75,no,no
0.00357,baixo,0.217391,0.076923,0.352407,0.135657,0.280775,sala_comercial,medio,1003.08,no,no
0.012512,baixo,0.347826,0,0.668903,0,0.721646,sala_comercial,medio,850,no,no
0.017845,medio,0.072464,0,0.406472,0.172278,0.360304,sala_comercial,baixo,3322.54,no,no
0.021838,baixo,0.275362,0,0.839384,0,0.793223,loja,medio,850,no,no
0.033673,medio,0.57971,0.153846,0.409629,0.205552,0.363416,loja,baixo,7399.96,no,no
0.005883,baixo,0.550725,0,0.681137,0,0.452974,loja,alto,850,no,no
0.004491,alto,0.057971,0,0.303473,0.292774,0.237898,sala_comercial,alto,6604.68,no,no
0.015376,medio,0.188406,0,0.281373,0.193345,0.467151,sala_comercial,medio,3826.68,no,no
0.042911,baixo,0.15942,0.076923,0.664167,0.030715,0.486169,escritorio,baixo,850,no,no
0.020032,baixo,0.318841,0.076923,0.565904,0.075802,0.71231,sala_comercial,medio,850,no,no
0.055495,alto,0.207802,0.230769,0.152723,0.35125,0.190871,loja,medio,22623.19,no,no
0.055244,baixo,0.101449,0.076923,0.614838,0.07659,0.422891,loja,baixo,4497.57,no,no
0.058368,medio,0.333333,0.230769,0.3603,0.192951,0.22545,loja,medio,10352.84,no,no
0.025756,alto,0.275362,0,0.105367,0.307344,0.226487,escritorio,medio,10931.97,no,no
0.045362,medio,0.115942,0,0.353197,0.257531,0.440871,loja,medio,9162.79,no,no
0.015483,medio,0.043478,0,0.250197,0.190589,0.33195,loja,baixo,5522.05,no,no
0.023136,baixo,0.115942,0,0.174033,0.145304,0.39592,sala_comercial,medio,4141.1,no,no
0.013033,medio,0.246377,0,0.185083,0.184924,0.355571,sala_comercial,medio,3973.15,no,no
0.056527,baixo,0.144928,0.230769,0.728098,0.044891,0.118603,loja,medio,7091.54,no,no
0.019118,medio,0.15942,0,0.292028,0.148061,0.1926,loja,medio,5696.34,no,no
0.01395,alto,0.188406,0.120447,0.063931,0.260091,0.159059,sala_comercial,alto,6919.6,no,no
0.230844,medio,0.086957,0.076923,0.379242,0.319748,0.194675,galpao,alto,51244.48,yes,no
0.269473,alto,0.26087,0.076923,0.134964,0.342193,0.121024,galpao,alto,72043.55,yes,no
0.021669,baixo,0.246377,0.076923,0.750197,0,0.355571,sala_comercial,medio,850,no,no
0.037659,alto,0.072464,0,0.124309,0.382162,0.115145,loja,medio,17506.04,no,no
0.024819,medio,0.275362,0.153846,0.385951,0.198267,0.137967,loja,medio,8187.69,no,no
0.017279,alto,0.188406,0.076923,0.158642,0.191967,0.12621,sala_comercial,medio,6604.81,no,no
0.007318,baixo,0.072464,0.076923,0.696922,0.024611,0.511411,loja,alto,850,no,no
0.01027,alto,0.173913,0,0.194159,0.228195,0.258645,sala_comercial,medio,4651.6,no,no
0.028496,alto,0.188406,0,0.18311,0.288836,0.101314,escritorio,medio,11858.35,no,no
0.016231,baixo,0.028986,0,0.25809,0.133294,0.525588,sala_comercial,medio,2879.66,no,no
0.022414,medio,0.202899,0,0.322415,0.1772,0.304633,sala_comercial,medio,5697.64,no,no
0.000007,medio,0.043478,0.120447,0.245067,0.15318,0.201245,sala_comercial,baixo,850,no,no
0.006824,medio,0.144928,0.076923,0.303078,0.226029,0.151452,sala_comercial,medio,2290.78,no,no
0.042892,baixo,0.217391,0.153846,0.854775,0.184924,0.570885,escritorio,baixo,850,no,no
0.014523,medio,0.144928,0,0.215864,0.168931,0.312586,loja,medio,2683.78,no,no
0.26852,baixo,0.188406,0.538462,0.483425,0.198858,0.651798,galpao,medio,45316.88,yes,no
0.060998,medio,0.202899,0.615385,0.248224,0.2975,0.300484,galpao,baixo,41466.26,no,no
0.004308,alto,0.086957,0,0.364122,0.183107,0.20574,sala_comercial,alto,3458.02,no,no
0.024916,medio,0.043478,0.230769,0.364122,0.137822,0.230982,loja,baixo,5084.95,no,no
0.007406,medio,0.014493,0,0.243883,0.17661,0.279737,escritorio,baixo,2965.79,no,no
0.014383,medio,0.028986,0,0.224546,0.078165,0.13278,sala_comercial,medio,2418.28,no,no
0.243489,medio,0.434783,0.120447,0.234412,0.261469,0.416321,galpao,baixo,38013,yes,no
0.001097,alto,0.304348,0,0.099842,0.639102,0.055325,escritorio,baixo,9209.99,yes,no
0.042059,alto,0,0.230769,0.124704,0.184924,0.266598,escritorio,medio,14558.24,no,no
0.014604,baixo,0.275362,0,0.129045,0.106911,0.680152,sala_comercial,baixo,1276.75,no,no
0.015991,medio,0.144928,0.384615,0.408445,0.103564,0.417358,loja,medio,4330.25,no,no
0.06871,baixo,0.347826,0,0.809787,0.056113,0.536999,galpao,medio,2321.42,no,no
0.060998,medio,0.202899,0,0.19929,0.218547,0.236169,loja,baixo,5710.89,no,no
0.083021,baixo,0.086957,0.153846,0.445146,0.168734,0.518672,loja,alto,15286.59,no,no
0.000007,baixo,0.188406,0,0.937648,0,0.363071,loja,medio,850,no,no
0.036117,alto,0.101449,0.120447,0.364122,0.184924,0.192946,escritorio,medio,12972.12,no,no
0.025349,medio,0.057971,0,0.477901,0.054538,0.30083,sala_comercial,medio,1792.8,no,no
0.024061,medio,0.057971,0,0.355959,0.147864,0.313624,loja,alto,5685.1,no,no
0.004266,medio,0.043478,0.076923,0.347277,0.136247,0.336445,loja,medio,1974.11,no,no
0.000007,medio,0.043478,0.076923,0.442778,0.116361,0.320539,loja,medio,850,no,no
0.021236,medio,0.304348,0.076923,0.364122,0.161843,0.360996,sala_comercial,baixo,3296.75,no,no
0.011197,baixo,0.028986,0.076923,0.507498,0,0.702974,escritorio,baixo,850,no,no
0.00657,medio,0.188406,0,0.438437,0.102973,0.19917,escritorio,medio,850,no,no
0.065361,medio,0.492754,0.153846,0.364246,0.262453,0.524205,loja,alto,13255.01,no,no
0.241804,alto,0.246377,0.615385,0.154696,0.51073,0.214039,galpao,baixo,59795.06,yes,no
0.065046,medio,0.42029,0.153846,0.571823,0.139004,0.502075,galpao,medio,8649.26,no,no
0.01956,medio,0.043478,0.153846,0.434096,0.130341,0.359267,escritorio,alto,5477.38,no,no
0.008412,medio,0.115942,0.230769,0.224941,0.158299,0.272476,escritorio,medio,5513.87,no,no
0.031659,baixo,0.072464,0.153846,0.29558,0.184924,0.635892,escritorio,baixo,987.81,no,no
0.025307,alto,0.304348,0.076923,0.294396,0.331168,0.025242,sala_comercial,alto,9079.25,no,no
0.198707,baixo,0.101449,0.153846,0.66614,0.190786,0.378976,galpao,medio,25771.07,yes,no
0.013667,baixo,0.207802,0.076923,0.605367,0.027564,0.837137,sala_comercial,medio,850,no,no
0.020907,baixo,0.207802,0.076923,0.581689,0.036621,0.410443,loja,alto,982.89,no,no
0.013283,medio,0.115942,0,0.217837,0.19748,0.355571,escritorio,medio,3442.91,no,no
0.046683,medio,0.15942,0.153846,0.364122,0.14432,0.372752,loja,medio,8674.33,no,no
0.051701,medio,0.144928,0,0.185872,0.222288,0.385892,loja,baixo,10295.27,no,no
0.040386,medio,0.014493,0.076923,0.284136,0.13861,0.401798,loja,baixo,5908.56,no,no
0.021796,medio,0.101449,0.153846,0.477901,0.158693,0.396266,escritorio,baixo,2586.72,no,no
0.016963,medio,0.246377,0,0.460537,0.071668,0.415284,sala_comercial,medio,850,no,no
0.083408,medio,0.086957,0,0.314522,0.197283,0.311895,galpao,alto,16807.79,no,no
0.061499,medio,0.207802,0.076923,0.506709,0.204371,0.349931,loja,medio,10163.93,no,no
0.006206,medio,0.086957,0,0.442384,0.180547,0.639696,sala_comercial,baixo,850,no,no
0.040637,baixo,0.449275,0.120447,0.539463,0.080331,0.662172,escritorio,alto,850,no,no
0.183527,baixo,0.130435,0.307692,0.51026,0.105533,0.768672,galpao,alto,26031.71,no,no
0.060998,medio,0.376812,0.615385,0.291239,0.287261,0.352006,galpao,medio,28773.16,no,no
0.033475,medio,0.043478,0.076923,0.241515,0.160465,0.286999,escritorio,medio,6696.38,no,no
0.322941,baixo,0.347826,0.769231,0.089582,0.37153,0.514523,galpao,medio,49273.86,yes,no
0.030107,medio,0.478261,0,0.40292,0.179563,0.318811,sala_comercial,alto,2977.72,no,no
0.050445,medio,0.144928,0,0.294791,0.183304,0.396611,loja,medio,10139.05,no,no
0.014578,medio,0.115942,0.076923,0.237174,0.137822,0.312586,sala_comercial,alto,4282.08,no,no
0.01383,baixo,0.101449,0,0.623915,0.081709,0.538036,sala_comercial,baixo,850,no,no
0.005577,baixo,0.202899,0.153846,0.551302,0.062808,0.485477,sala_comercial,medio,850,no,no
0.020055,alto,0.144928,0,0.236385,0.27407,0.118949,escritorio,medio,7851,no,no
0.035164,medio,0.26087,0,0.33386,0.162827,0.236515,escritorio,alto,7390.74,no,no
0.004806,baixo,0.217391,0.076923,0.389503,0.057295,0.693638,sala_comercial,medio,850,no,no
0.063533,alto,0.101449,0.153846,0.209155,0.202599,0.235477,loja,medio,19568.86,no,no
0.049468,alto,0.333333,0.153846,0.222968,0.224454,0.196058,escritorio,medio,13277.89,no,no
0.000156,medio,0.231884,0,0.40371,0.159874,0.335408,loja,baixo,916.45,no,no
0.034054,baixo,0.188406,0.076923,0.359511,0.107305,0.751383,loja,alto,4669.98,no,no
0.057041,baixo,0.014493,0.076923,0.882399,0.14432,0.571231,loja,alto,6745.55,no,no
0.262438,medio,0.144928,0.076923,0.238358,0.438866,0.288728,galpao,medio,44151.1,yes,no
0.01889,medio,0.521739,0.076923,0.397001,0.169718,0.24343,sala_comercial,medio,1645.08,no,no
0.01288,baixo,0.072464,0.230769,0.561563,0.113408,0.490664,sala_comercial,alto,1474.33,no,no
0.044604,baixo,0.289855,0.076923,0.432518,0.088403,0.56639,loja,medio,2351.88,no,no
0.000007,baixo,0.217391,0,0.797948,0.033668,0.613762,loja,medio,850,no,no
0.045453,alto,0.043478,0.307692,0.157853,0.184924,0.180844,loja,alto,27591.24,no,no
0.053608,medio,0.231884,0.307692,0.431728,0.225832,0.276625,loja,medio,10465.44,no,no
0.022889,alto,0.478261,0.230769,0,0.184924,0.165629,loja,alto,12311.1,no,no
0.014832,alto,0.144928,0.153846,0.059984,0.368773,0.159059,sala_comercial,medio,10346.55,no,no
0.327568,medio,0.072464,0.615385,0.283346,0.430597,0.419433,galpao,baixo,53895.51,yes,no
0.136476,alto,0.207802,0.615385,0.142857,0.29238,0.152144,galpao,alto,38901.23,no,no
0.023758,alto,0.144928,0.307692,0.093528,0.195511,0,loja,baixo,11183.52,no,no
0.234414,medio,0.26087,0.153846,0.364122,0.340224,0.324689,galpao,medio,39358.3,yes,no
0.188876,baixo,0.217391,0.384615,0.685872,0.112424,0.355571,galpao,medio,25399.07,no,no
0.030718,baixo,0.207802,0.120447,0.494081,0.184924,0.349931,escritorio,baixo,850,no,no
0.015551,medio,0.101449,0.307692,0.442384,0.153574,0.320885,loja,medio,4584.44,no,no
0.021246,baixo,0.289855,0.230769,0.938832,0.021658,0.416321,sala_comercial,baixo,850,no,no
0.049963,alto,0.144928,0.076923,0,0.285292,0.05982,escritorio,baixo,15403.43,no,no
0.008718,baixo,0.15942,0,0.428966,0.022642,0.437068,sala_comercial,medio,850,no,no
0.050744,baixo,0.207802,0.153846,0.834254,0.184924,0.791494,loja,baixo,1125.15,no,no
0.040627,medio,0.710145,0,0.18232,0.246505,0.567773,galpao,medio,5989.88,no,no
0.040302,medio,0.304348,0.153846,0.214286,0.249262,0.355809,escritorio,medio,8357.94,no,no
0.013384,baixo,0.043478,0,0.308208,0.052176,0.51556,sala_comercial,baixo,850,no,no
0.018942,baixo,0.333333,0,0.567877,0.05001,0.551176,sala_comercial,baixo,850,no,no
0.023273,baixo,0.144928,0.230769,0.411208,0.04686,0.708506,escritorio,alto,2071.28,no,no
0.299105,alto,0.101449,1,0.092739,0.44812,0.211618,galpao,baixo,65821.24,yes,no
0.037262,medio,0.173913,0.153846,0.286504,0.168537,0.24343,loja,medio,7658.42,no,no
0.036618,medio,0.449275,0.153846,0.36543,0.185076,0.254495,loja,medio,7982.92,no,no
0.041372,medio,0.521739,0,0.352013,0.223666,0.251729,galpao,alto,7712.69,no,no
0.081915,medio,0.15942,0.153846,0.328335,0.199252,0.518326,galpao,medio,14832.53,no,no
0.167146,medio,0.275362,0.692308,0.265588,0.273479,0.277317,galpao,alto,38508.23,yes,no
0.01807,baixo,0.028986,0,0.466456,0.033274,0.717151,loja,alto,850,no,no
0.045062,medio,0.15942,0.153846,0.390687,0.214412,0.333679,loja,medio,8011.25,no,no
0.000007,medio,0.043478,0.076923,0.220205,0.104745,0.463001,loja,baixo,1134.89,no,no
0.050988,baixo,0.637681,0.230769,0.711918,0.113211,0.577455,loja,baixo,2915.67,no,no
0.107228,medio,0.043478,0.076923,0.277032,0.211262,0.099585,galpao,baixo,20009.42,no,no
0.01463,medio,0.043478,0,0.195738,0.190786,0.282503,sala_comercial,medio,3919.35,no,no
0.028581,medio,0.043478,0,0.314522,0.149636,0.271093,escritorio,medio,5097.93,no,no
0.021975,alto,0.086957,0.153846,0.102999,0.184924,0.169779,sala_comercial,alto,10017.02,no,no
0.066094,alto,0.144928,0,0.24783,0.275054,0.191563,loja,baixo,14399.42,no,no
0.000007,medio,0.101449,0,0.271902,0.067927,0.381743,sala_comercial,alto,850,no,no
0.019456,medio,0.207802,0,0.318074,0.253987,0.292531,escritorio,medio,7844.48,no,no
0.007579,alto,0.26087,0.120447,0.364122,0.18291,0.048755,escritorio,medio,5232.4,no,no
0.023732,medio,0.115942,0.153846,0.278216,0.147076,0.156985,escritorio,alto,8264.61,no,no
0.02955,medio,0.086957,0.076923,0.307419,0.16834,0.368603,escritorio,baixo,5965.27,no,no
0.01944,medio,0.492754,0.230769,0.411602,0.104154,0.220609,escritorio,baixo,1622.65,no,no
0.032892,baixo,0.347826,0,0.626283,0.062611,0.571577,escritorio,alto,850,no,no
0.21773,medio,0.391304,0.230769,0.265588,0.332152,0.251037,galpao,alto,45559.93,yes,no
0.012414,medio,0.207802,0.153846,0.243094,0.176019,0.423928,sala_comercial,medio,850,no,no
0.001998,alto,0.202899,0,0.059195,0.796023,0.03527,sala_comercial,baixo,22169.36,yes,no
0.216874,baixo,0.144928,0.615385,0.364122,0.250049,0.669779,galpao,baixo,28422.07,yes,no
0.060998,medio,0.207802,0.076923,0.2794,0.163812,0.480636,loja,baixo,5794.13,no,no
0.000007,medio,0.188406,0,0.16693,0.101595,0.102351,loja,alto,850,no,no
0.236396,medio,0.217391,0.461538,0.248224,0.285883,0.292877,galpao,medio,44095.44,yes,no
0.038343,baixo,0.246377,0,0.38674,0.081118,0.355571,escritorio,medio,3178.4,no,no
0.009424,baixo,0.072464,0.153846,0.716259,0.021461,0.854426,sala_comercial,medio,850,no,no
0.100343,baixo,0.246377,0.153846,0.450671,0.146682,0.812241,galpao,medio,10575.23,no,no
0.009765,baixo,0.275362,0,0.749408,0.022839,0.545989,sala_comercial,medio,850,no,no
0.128855,medio,0.15942,0.615385,0.420679,0.295728,0.355571,galpao,medio,27252.76,no,no
0.192947,baixo,0,0.384615,0.642463,0.18921,0.637621,galpao,medio,25915.09,no,no
0.687391,baixo,1,0,0.771507,0,0.844744,escritorio,medio,6402.82,yes,yes
0.021965,alto,0.086957,0.076923,0.065509,0.258122,0.10408,loja,alto,13123.58,no,no
0.012597,alto,0.289855,0.120447,0.245067,0.302028,0.135546,escritorio,alto,9138.58,no,no
0.029004,medio,0.26087,0,0.460142,0.189998,0.273859,loja,baixo,3840.4,no,no
0.008711,medio,0.014493,0,0.283346,0.146682,0.225104,escritorio,baixo,3237.83,no,no
0.010625,alto,0.318841,0.153846,0.088792,0.270329,0.210235,sala_comercial,medio,6749.86,no,no
0.169085,baixo,0.318841,0.307692,0.384373,0.175428,0.587137,galpao,baixo,18605.59,no,no
0.032886,medio,0.043478,0,0.204815,0.184924,0.42704,loja,medio,6503.34,no,no
0.027028,medio,0.333333,0,0.405288,0.113408,0.466459,loja,baixo,850,no,no
0.060998,medio,0.072464,0.230769,0.511444,0.152983,0.277663,loja,medio,7371.04,no,no
0.015395,baixo,0.043478,0,0.651934,0.079937,0.416667,escritorio,alto,850,no,no
0.139056,medio,0.405797,0,0.616022,0.126403,0.487552,galpao,medio,12415.93,no,no
0.011132,medio,0.207802,0,0.167324,0.210868,0.46473,sala_comercial,medio,5862.6,no,no
0.032466,baixo,0.014493,0.076923,0.61247,0.075999,0.484094,escritorio,medio,1727.02,no,no
0.002942,alto,0.072464,0,0.364122,0.741878,0.56397,sala_comercial,medio,13416.88,yes,no
0.060998,medio,0.072464,0.120447,0.428571,0.18547,0.361342,loja,medio,5790.22,no,no
0.196862,baixo,0.173913,0.307692,0.447119,0.295137,0.507607,galpao,medio,29418.46,yes,no
0.275549,alto,0.42029,0.076923,0.364122,1,0.188105,loja,medio,193608.4,yes,no
0.1968,medio,0.115942,0.153846,0.385556,0.283127,0.323997,galpao,medio,34822.98,yes,no
0.013654,medio,0.362319,0.120447,0.529203,0.129159,0.395228,sala_comercial,medio,850,no,no
0.016612,alto,0.072464,0.120447,0.169298,0.225635,0.171508,sala_comercial,baixo,6607.71,no,no
0.000007,alto,0.449275,0,0,0.272691,0,escritorio,alto,4364.71,no,no
0.012876,alto,0.333333,0,0.224152,0.277023,0.135201,sala_comercial,medio,4582.59,no,no
0.060998,baixo,0.130435,0,0.152328,0.149242,0.534924,loja,medio,6302,no,no
0.032733,alto,0.057971,0.120447,0.104972,0.27722,0.032849,escritorio,medio,16116.59,no,no
0.031942,alto,0.144928,0.153846,0.119574,0.35125,0.207123,loja,medio,15893.38,no,no
0.024145,alto,0.144928,0,0.153118,0.240795,0.222683,sala_comercial,alto,10790.59,no,no
0.031138,alto,0.289855,0.153846,0.056038,0.313054,0.137967,loja,baixo,13387.48,no,no
0.043924,baixo,0.304348,0.230769,0.448698,0.135657,0.409405,escritorio,medio,4190.98,no,no
0.007139,baixo,0.521739,0,0.690213,0.017129,0.377593,loja,medio,850,no,no
0.009883,baixo,0.057971,0.153846,0.504736,0.095294,0.521093,loja,alto,1166.34,no,no
0.064639,baixo,0.144928,0.153846,0.58603,0.089978,0.616183,loja,medio,7127.71,no,no
0.242461,medio,0.449275,0.615385,0.364122,0.507777,0.047718,galpao,medio,60147.85,yes,no
0.010426,alto,0,0.230769,0.138122,0.347312,0.167012,sala_comercial,baixo,9556.37,no,no
0.004419,medio,0.072464,0.153846,0.312944,0.152983,0.339557,sala_comercial,alto,4341.68,no,no
0.002255,medio,0.101449,0.076923,0.442778,0.159283,0.378631,sala_comercial,medio,850,no,no
0.013579,medio,0.130435,0,0.426993,0.145698,0.115145,sala_comercial,baixo,3905.33,no,no
0.04613,alto,0.173913,0.076923,0.246646,0.294546,0.162863,loja,baixo,15235.38,no,no
0.20281,alto,0.173913,0.461538,0.072218,0.184924,0.355571,galpao,alto,60313.95,yes,no
0.007764,medio,0.057971,0,0.305051,0.163615,0.295297,sala_comercial,medio,3089.33,no,no
0.258731,baixo,0.695652,0.461538,0.589582,0.197086,0.525242,loja,medio,30930.81,yes,no
0.003186,alto,0.144928,0.076923,0.076164,0.815712,0.382434,escritorio,baixo,23921.52,yes,no
0.042482,alto,0.057971,0.076923,0.131018,0.310691,0.254149,loja,baixo,12763.37,no,no
0.052358,medio,0.289855,0.076923,0.40371,0.210278,0.271784,loja,medio,11735.78,no,no
0.012457,medio,0.202899,0,0.535517,0.119709,0.355571,sala_comercial,baixo,850,no,no
0.060998,alto,0.057971,0.076923,0.086425,0.196495,0.041494,sala_comercial,alto,4801.22,no,no
0.031835,baixo,0.207802,0.076923,0.479874,0.075212,0.440871,loja,medio,2954.98,no,no
0.002623,medio,0.072464,0,0.364122,0.168931,0.319156,sala_comercial,medio,850,no,no
0.013404,medio,0.217391,0,0.235596,0.151014,0.348548,sala_comercial,medio,2544.92,no,no
0.138659,baixo,0.057971,0,0.518548,0.09746,0.698479,galpao,medio,15143.44,no,no
0.210272,medio,0.072464,0.615385,0.269929,0.273676,0.343015,galpao,baixo,33201,yes,no
0.063715,baixo,0.130435,0.153846,0.671271,0.019295,0.419779,loja,baixo,2930.56,no,no
0.028883,medio,0.115942,0.153846,0.31176,0.202402,0.319502,sala_comercial,alto,7570.42,no,no
0.023254,medio,0.376812,0.153846,0.192581,0.185666,0.138313,sala_comercial,alto,6973.25,no,no
0.06023,baixo,0.246377,0.307692,0.567088,0.063005,0.369295,loja,medio,5477.46,no,no
0.0405,alto,0.318841,0.076923,0.232044,0.340815,0.224758,escritorio,baixo,11783.95,no,no
0.058313,medio,0.086957,0.230769,0.447119,0.145304,0.437068,loja,alto,13053.27,no,no
0.021861,medio,0.028986,0.076923,0.375296,0.218153,0.349239,escritorio,alto,5632,no,no
0.000007,alto,0.130435,0,0.364122,0.261666,0.157331,sala_comercial,baixo,2857.51,no,no
0.01682,medio,0.115942,0.076923,0.498421,0.229376,0.298409,sala_comercial,baixo,2464.52,no,no
0.013172,medio,0.101449,0.153846,0.23678,0.158496,0.399378,sala_comercial,medio,4308.37,no,no
0.01189,baixo,0.318841,0,0.691792,0.064383,0.385892,sala_comercial,alto,850,no,no
0.026687,baixo,0.246377,0.230769,0.336622,0.105139,0.440526,escritorio,baixo,1268.03,no,no
0.019895,alto,0.492754,0.076923,0.11326,0.189604,0.147649,sala_comercial,baixo,4458.01,no,no
0.175421,baixo,0.231884,0.615385,0.514207,0.220713,0.403181,galpao,medio,26474.68,no,no
0.03024,medio,0.188406,0.120447,0.212313,0.17405,0.33195,escritorio,alto,8851.64,no,no
0.043562,baixo,0.072464,0,0.27427,0.112227,0.355571,loja,medio,5695.25,no,no
0.149769,baixo,0.173913,0.076923,0.476717,0.200827,0.51556,galpao,medio,21924.02,no,no
0.035046,medio,0.130435,0.120447,0.362668,0.170703,0.399032,escritorio,medio,6581.39,no,no
0.010992,alto,0.173913,0,0.071034,0.153377,0.141425,sala_comercial,medio,6032.85,no,no
0.036306,baixo,0.188406,0,0.364122,0.149439,0.778008,escritorio,medio,2127.36,no,no
0.020852,baixo,0.15942,0.076923,0.374901,0.13546,0.385201,escritorio,baixo,1940.57,no,no
0.057665,medio,0.376812,0.153846,0.395422,0.263831,0.194675,loja,medio,11223.24,no,no
0.000007,medio,0.231884,0.120447,0.26835,0.054538,0.143845,escritorio,baixo,850,no,no
0.204109,alto,0.086957,0.538462,0.033544,0.514471,0.208852,galpao,baixo,55566.31,yes,no
0.005535,baixo,0.188406,0.230769,0.746251,0.062217,0.649032,escritorio,medio,850,no,no
0.03666,alto,0.072464,0.120447,0.141279,0.184924,0.192254,escritorio,baixo,12035.65,no,no
0.024305,baixo,0.73913,0,0.325967,0.089585,0.787344,escritorio,baixo,850,no,no
0.034093,medio,0.231884,0.076923,0.315312,0.084662,0.282158,loja,baixo,3657.58,no,no
0.029654,medio,0.207802,0.153846,0.438437,0.0886,0.401452,sala_comercial,baixo,3158.8,no,no
0.051463,baixo,0.42029,0.153846,0.715075,0.015357,0.529737,loja,medio,1489.36,no,no
0.145447,baixo,0.231884,0.230769,0.51618,0.17976,0.487898,galpao,alto,23641.65,no,no
0.021353,medio,0.15942,0,0.507103,0.102579,0.207469,escritorio,baixo,1511.87,no,no
0.026312,medio,0.086957,0.307692,0.176006,0.247883,0.152835,loja,baixo,10396.75,no,no
0.055999,medio,0.173913,0.076923,0.217837,0.240992,0.211964,loja,baixo,11715.15,no,no
0.056663,baixo,0.144928,0,0.511444,0.072652,0.501729,loja,medio,6026.59,no,no
0.232784,medio,0.565217,0.769231,0.346093,0.449498,0.173582,galpao,medio,44360.62,yes,no
0.060998,alto,0.144928,0.153846,0.218232,0.26265,0.154219,loja,baixo,12782.57,no,no
0.000007,medio,0.130435,0,0.451855,0.128175,0.459544,sala_comercial,alto,850,no,no
0.186693,medio,0.101449,0.461538,0.393844,0.246702,0.459889,galpao,medio,32995.48,no,no
0.040507,baixo,0.086957,0.076923,0.452644,0.096869,0.420816,loja,medio,5412.53,no,no
0.045313,baixo,0.144928,0.230769,0.414365,0.109667,0.790802,loja,alto,8300.83,no,no
0.073796,alto,0.275362,0.153846,0.125888,0.225241,0.156293,loja,medio,21421.84,no,no
0.031233,medio,0.101449,0.153846,0.452249,0.07974,0.585062,loja,alto,4565.85,no,no
0.021913,medio,0.028986,0,0.282952,0.17976,0.24101,loja,medio,4481.75,no,no
0.066058,medio,0.144928,0.153846,0.199684,0.252018,0.340941,loja,alto,18349.91,no,no
0.023338,medio,0.028986,0,0.335438,0.11203,0.245505,loja,medio,5425.42,no,no
0.307696,medio,0.188406,0.538462,0.263615,0.334318,0.479253,galpao,medio,53706.72,yes,no
0.04352,medio,0.15942,0,0.279006,0.198267,0.298064,escritorio,medio,11110.67,no,no
0.005695,alto,0.144928,0,0.1985,0.271116,0.146957,escritorio,alto,7438.29,no,no
0.074007,medio,0.202899,0.461538,0.453039,0.144123,0.328492,galpao,baixo,11974.57,no,no
0.062039,medio,0.130435,0,0.259669,0.161252,0.303596,loja,medio,12578.38,no,no
0.023299,medio,0.144928,0.153846,0.610892,0.062808,0.502075,escritorio,alto,3108.4,no,no
0.057568,baixo,0.217391,0.153846,0.72573,0.047844,0.471992,loja,medio,3510.68,no,no
0.030989,medio,0.217391,0,0.274665,0.193739,0.430152,escritorio,alto,8364.08,no,no
0.02135,alto,0.115942,0.153846,0.073402,0.251821,0.119295,escritorio,baixo,8025.23,no,no
0.050406,baixo,0.130435,0.153846,0.698895,0.177003,0.578492,loja,medio,13467.67,no,no
0.217467,baixo,0.26087,0.307692,0.673244,0.184924,0.390733,galpao,baixo,20921.44,yes,no
0.005831,medio,0.072464,0.153846,0.408051,0.213034,0.323997,sala_comercial,baixo,3876.4,no,no
0.01945,baixo,0.275362,0.076923,0.45738,0.024217,0.465076,escritorio,medio,850,no,no
0.039934,medio,0.173913,0.153846,0.384373,0.153967,0.503112,escritorio,alto,8798.67,no,no
0.060998,baixo,0.144928,0.076923,0.760063,0.049222,0.699516,escritorio,baixo,850,no,no
0.138048,medio,0.130435,0.615385,0.325572,0.289624,0.308783,loja,medio,27989.78,no,no
0.047578,alto,0.043478,0,0.064325,0.265013,0.256916,loja,alto,22014.98,no,no
0.168844,medio,0.130435,0.538462,0.252565,0.269541,0.226141,galpao,baixo,28531.67,no,no
0.015616,medio,0.173913,0,0.364122,0.170112,0.10408,sala_comercial,baixo,3628.11,no,no
0.01179,medio,0.289855,0,0.389503,0.11833,0.21473,sala_comercial,medio,850,no,no
0.025714,baixo,0.028986,0,0.807024,0.060248,0.387967,escritorio,medio,850,no,no
0.023234,medio,0.231884,0.076923,0.235596,0.158299,0.348548,loja,alto,5532.5,no,no
0.042954,medio,0.217391,0.153846,0.364641,0.189407,0.22787,loja,medio,11125,no,no
0.004051,baixo,0.275362,0.120447,0.74704,0.035243,0.573651,sala_comercial,baixo,850,no,no
0.267124,alto,0.188406,0.538462,0,0.581217,0.096127,galpao,alto,83584.03,yes,no
0.001025,medio,0.318841,0,0.277822,0.144714,0.198479,sala_comercial,baixo,850,no,no
0.02122,medio,0.130435,0.230769,0.32281,0.175034,0.476487,loja,alto,8388.02,no,no
0.011965,baixo,0.478261,0,0.454223,0.05887,0.403181,loja,medio,850,no,no
0.051193,baixo,0.072464,0,0.461326,0.122859,0.482019,loja,medio,5534.94,no,no
0.05407,baixo,0.449275,0.230769,0.744672,0.034062,0.508645,loja,baixo,1902.58,no,no
0.024305,medio,0.043478,0.153846,0.421073,0.163221,0.380014,sala_comercial,baixo,2165.97,no,no
0.062127,baixo,0.405797,0.153846,0.364122,0.078362,0.519018,loja,alto,6869.78,no,no
0.019625,medio,0.391304,0.230769,0.563141,0.189998,0.319848,sala_comercial,medio,4104.16,no,no
0.193777,alto,0,0.538462,0.368982,0.361882,0.156985,galpao,medio,48325.12,no,no
0.058534,medio,0.246377,0.230769,0.210339,0.227998,0.355571,escritorio,medio,11116.43,no,no
0.015528,medio,0.246377,0.076923,0.375691,0.130341,0.312586,sala_comercial,alto,2757.78,no,no
0.01602,medio,0.028986,0,0.110103,0.20693,0.452282,escritorio,baixo,4865.1,no,no
0.007488,baixo,0.072464,0,0.483031,0.064973,0.355571,loja,medio,850,no,no
0.018207,baixo,0.217391,0.230769,0.67719,0.041544,0.592669,sala_comercial,medio,850,no,no
0.046898,medio,0.086957,0.153846,0.182715,0.275448,0.298409,escritorio,alto,15848.07,no,no
0.051571,medio,0.101449,0.076923,0.422257,0.195511,0.206086,loja,medio,9883.85,no,no
0.028284,alto,0.086957,0.076923,0.163773,0.277023,0.070885,loja,alto,12806.09,no,no
0.010712,alto,0.101449,0.076923,0.0588,0.222879,0.136929,sala_comercial,medio,6426.46,no,no
0.005207,alto,0.057971,0.076923,0.114838,0.322504,0.206777,sala_comercial,baixo,6184.85,no,no
0.020247,baixo,0.057971,0.120447,0.417127,0.127387,0.288728,loja,medio,3235.09,no,no
0.025209,baixo,0.173913,0,0.459353,0.028549,0.355571,loja,medio,850,no,no
0.274296,medio,0.275362,0.230769,0.456196,0.263438,0.254841,galpao,alto,58091.79,yes,no
0.023436,medio,0.231884,0.076923,0.342147,0.084072,0.245505,sala_comercial,alto,4066.91,no,no
0.009824,medio,0.072464,0.120447,0.364122,0.113211,0.085754,sala_comercial,medio,3763.21,no,no
1,medio,0.565217,0.153846,0.422652,0.190195,0.859267,escritorio,baixo,6182.34,no,yes
0.029977,medio,0.207802,0,0.27427,0.208309,0.306362,escritorio,baixo,4919.52,no,no
0.044203,baixo,0.057971,0.153846,0.5,0.052176,0.57296,loja,alto,5254.79,no,no
0.006567,baixo,0.207802,0,0.718627,0.061036,0.700207,sala_comercial,baixo,850,no,no
0.012974,medio,0.666667,0.076923,0.369376,0.141366,0.191563,sala_comercial,medio,850,no,no
0.016004,alto,0.492754,0.076923,0.078137,0.338256,0.147994,loja,medio,9059.91,no,no
0.010846,alto,0.217391,0,0.10221,0.239023,0.239281,loja,baixo,7256.19,no,no
0.015424,baixo,0.202899,0.076923,0.634175,0.051585,0.58195,escritorio,medio,850,no,no
0.05775,alto,0.202899,0,0.33899,0.262059,0.228907,loja,baixo,12774.06,no,no
0.043269,medio,0.144928,0,0.245856,0.210278,0.249654,loja,medio,9151.92,no,no
0.029921,alto,0.028986,0,0.138911,0.19177,0.146611,loja,medio,11753.02,no,no
0.001975,medio,0.405797,0,0.08603,0.165978,0.380014,loja,medio,850,no,no
0.025317,medio,0.207802,0,0.210339,0.184924,0.309474,loja,medio,5130.53,no,no
0.035193,alto,0.391304,0.076923,0.228493,0.407561,0.183956,loja,alto,16171.92,no,no
0.000007,baixo,0.028986,0.076923,0.415943,0.077771,0.670816,loja,medio,850,no,no
0.066504,medio,0.565217,0.076923,0.442384,0.20693,0.270055,loja,alto,13067.1,no,no
0.010397,baixo,0.086957,0,0.355564,0.046072,0.646266,sala_comercial,medio,850,no,no
0.028938,baixo,0.101449,0,0.782952,0.071274,0.454703,escritorio,baixo,850,no,no
0.015252,alto,0.26087,0,0.136938,0.258515,0.167358,sala_comercial,baixo,5321.42,no,no
0.004829,alto,0.217391,0,0.100237,0.253987,0.029737,sala_comercial,medio,7461.5,no,no
0.036592,medio,0.478261,0.307692,0.084057,0.381965,0.077801,loja,medio,17020.44,no,no
0.000007,medio,0.231884,0.230769,0.364122,0.172278,0.294952,sala_comercial,medio,1791.13,no,no
0.196452,medio,0.347826,0.230769,0.327151,0.358141,0.320194,loja,medio,37061.71,yes,no
0.018346,medio,0.449275,0.230769,0.2794,0.201418,0.094744,escritorio,baixo,7502.82,no,no
0.007175,baixo,0.318841,0,0.365825,0.053948,0.383817,sala_comercial,medio,850,no,no
0.008477,medio,0.347826,0,0.304262,0.172081,0.275242,sala_comercial,baixo,850,no,no
0.000007,baixo,0.217391,0,0.579321,0.047844,0.519018,sala_comercial,medio,850,no,no
0.013742,medio,0.304348,0.076923,0.515785,0.103564,0.397994,sala_comercial,baixo,1778.76,no,no
0.04614,medio,0.173913,0.153846,0.323599,0.198267,0.332296,escritorio,medio,8519.22,no,no
0.01299,medio,0.202899,0,0.423441,0.184924,0.476833,sala_comercial,baixo,850,no,no
0.024477,medio,0.347826,0.076923,0.297159,0.173853,0.089212,loja,alto,7380.29,no,no
0.218095,medio,0.130435,0.120447,0.217048,0.340028,0.118603,galpao,alto,52059.15,yes,no
0.038229,baixo,0.043478,0,0.767561,0.184924,0.501729,loja,baixo,2024.27,no,no
0.020907,alto,0.246377,0,0.156275,0.309707,0.115491,sala_comercial,medio,7686.53,no,no
0.018457,baixo,0.028986,0,0.574586,0.10888,0.539073,escritorio,medio,3640.48,no,no
0.059426,medio,0.014493,0.230769,0.364122,0.176216,0.322268,loja,medio,15456.54,no,no
0.017094,medio,0.207802,0,0.291239,0.11203,0.140387,loja,medio,4480.82,no,no
0.074557,baixo,0.202899,0.384615,0.642857,0.184924,0.416667,galpao,baixo,5355.76,no,no
0.010924,medio,0.144928,0,0.305841,0.152195,0.264177,loja,alto,5079,no,no
0.166449,medio,0.072464,0.461538,0.250197,0.297106,0.296335,galpao,medio,31833.92,no,no
0.021506,alto,0.043478,0,0.364122,0.234889,0.085408,escritorio,medio,8296.4,no,no
0.019095,medio,0.318841,0.120447,0.303867,0.150423,0.132434,loja,medio,4152.44,no,no
0.060998,alto,0.207802,0.076923,0.022889,0.277811,0.185685,sala_comercial,medio,4303.79,no,no
0.027747,baixo,0.101449,0.076923,0.754538,0.036621,0.150761,escritorio,medio,1549.01,no,no
0.043224,baixo,0.144928,0,0.692581,0.016342,0.466805,escritorio,medio,850,no,no
0.010205,medio,0.347826,0.153846,0.364122,0.175231,0.180498,sala_comercial,medio,2382.26,no,no
0.030543,medio,0.434783,0.153846,0.11839,0.272495,0.182918,escritorio,medio,8518.39,no,no
0.070106,baixo,0.072464,0,0.364122,0.071865,0.364108,loja,baixo,4770.9,no,no
0.006687,baixo,0.115942,0.153846,0.721784,0.033865,0.430844,sala_comercial,baixo,850,no,no
0.028743,medio,0.144928,0.076923,0.25217,0.116361,0.362379,escritorio,medio,5689.08,no,no
0.027162,alto,0.101449,0,0.126677,0.320536,0.142116,loja,medio,12162.97,no,no
0.060998,medio,0.231884,0.120447,0.350434,0.124828,0.344744,escritorio,alto,850,no,no
0.009144,baixo,0.188406,0,0.114444,0.174247,0.498963,escritorio,medio,2839.07,no,no
0.009007,medio,0.710145,0,0.37056,0.140579,0.381743,sala_comercial,medio,850,no,no
0.079025,baixo,0.188406,0.384615,0.875296,0.056113,0.560166,loja,baixo,7647.68,no,no
0.051086,medio,0.463768,0.076923,0.393054,0.227407,0.249654,loja,alto,10199.35,no,no
0.024051,baixo,0.028986,0.307692,0.43528,0.053554,0.640041,loja,medio,1898.27,no,no
0.013914,alto,0.043478,0.076923,0.104183,0.309904,0.274205,sala_comercial,alto,11929.22,no,no
0.000007,baixo,0.173913,0.076923,0.235596,0.109864,0.571923,escritorio,baixo,850,no,no
0.225175,baixo,0.130435,0.461538,0.402526,0.19177,0.643154,galpao,alto,42124.85,yes,no
0.020751,medio,0.289855,0,0.408445,0.178382,0.237898,loja,medio,4052.9,no,no
0.033891,medio,0.057971,0,0.531571,0.102776,0.379322,loja,medio,3925.38,no,no
0.031649,baixo,0.144928,0,0.120758,0.128962,0.392808,sala_comercial,medio,4710.76,no,no
0.013521,medio,0.057971,0,0.352802,0.240992,0.30982,sala_comercial,medio,3433.26,no,no
0.060998,baixo,0.207802,0,0.646803,0.016539,0.733402,loja,alto,850,no,no
0.022518,medio,0.028986,0,0.486188,0.125222,0.29184,loja,medio,4823.69,no,no
0.006489,alto,0.217391,0.076923,0.185872,0.184924,0.231674,sala_comercial,medio,5570.89,no,no
0.038759,medio,0.246377,0.076923,0.191002,0.148651,0.340941,loja,baixo,7639.7,no,no
0.042056,medio,0.115942,0,0.325178,0.219728,0.451245,loja,medio,9718.73,no,no
0.15959,baixo,0.637681,0,0.740726,0.11774,0.483057,galpao,baixo,9161.76,no,no
0.006739,baixo,0.855072,0.076923,0.614444,0.019886,0.335062,sala_comercial,alto,850,yes,no
0.060998,medio,0.231884,0,0.357932,0.252215,0.217497,loja,baixo,8037.05,no,no
0.075006,medio,0.275362,0.153846,0.578137,0.106714,0.405256,galpao,baixo,8222.04,no,no
0.000007,alto,0.318841,0.076923,0.086425,0.29494,0.173582,sala_comercial,medio,3660.2,no,no
0.037949,medio,0.275362,0.153846,0.18824,0.184924,0.275242,loja,medio,10663.97,no,no
0.00575,baixo,0.043478,0,0.474349,0.002953,0.506224,sala_comercial,medio,850,no,no
0.005577,baixo,0.144928,0.076923,0.495659,0.02402,0.355571,sala_comercial,medio,850,no,no
0.002112,medio,0.057971,0.076923,0.435675,0.133885,0.421853,sala_comercial,medio,850,no,no
0.033527,medio,0,0.120447,0.262036,0.184924,0.412517,escritorio,baixo,7978.75,no,no
0.064802,alto,0.101449,0.384615,0.035912,0.394172,0.199516,loja,alto,31076.67,no,no
0.028018,medio,0.478261,0.153846,0.391081,0.228588,0.355118,sala_comercial,alto,6788.19,no,no
0.189006,baixo,0.028986,0.461538,0.872534,0.199646,0.498271,galpao,baixo,24577.03,no,no
0.213275,medio,0.26087,0.153846,0.38674,0.344162,0.472337,galpao,medio,38307.08,yes,no
0.010283,baixo,0.188406,0.076923,0.457774,0.052176,0.57538,sala_comercial,baixo,850,no,no
0.060998,medio,0.207802,0.230769,0.420679,0.152392,0.498617,loja,medio,9345.27,no,no
0.029664,alto,0.347826,0,0.181531,0.249852,0.200899,sala_comercial,baixo,8961.95,no,no
0.236194,medio,0.101449,0.307692,0.1397,0.29179,0.253804,galpao,medio,39316.06,yes,no
0.01807,medio,0.376812,0.120447,0.382794,0.137429,0.238243,sala_comercial,baixo,2635.55,no,no
0.113775,baixo,0.42029,0,0.87056,0.152195,0.334371,loja,baixo,8200.95,no,no
0.013748,alto,0.115942,0.076923,0.09629,0.23863,0.173237,sala_comercial,baixo,4932.41,no,no
0.025076,medio,0.115942,0.230769,0.335043,0.181729,0.396611,sala_comercial,medio,5623.9,no,no
0.179941,alto,0.376812,0.230769,0.172455,0.184924,0.058783,galpao,baixo,39234.68,no,no
0.088332,medio,0.101449,0,0.16614,0.312266,0.337828,galpao,baixo,14699.3,no,no
0.066364,alto,0.202899,0.230769,0.320442,0.271313,0.08852,loja,medio,20075.68,no,no
0.031796,baixo,0.202899,0.076923,0.916732,0.076196,0.395228,loja,alto,850,no,no
0.067184,baixo,0.15942,0.230769,0.390292,0.146879,0.400415,loja,medio,11998.92,no,no
0.868282,baixo,0.57971,0.120447,0.855564,0.152392,1,loja,medio,8527.68,no,yes
0.032739,medio,0.072464,0.153846,0.393054,0.177791,0.429806,loja,medio,8509.9,no,no
0.021789,alto,0.028986,0,0.207182,0.253396,0.129668,sala_comercial,alto,10944.31,no,no
0.02229,medio,0.246377,0,0.464088,0.184924,0.288728,sala_comercial,medio,2733.78,no,no
0.011445,alto,0.15942,0.120447,0.187056,0.245324,0.211272,sala_comercial,medio,4806.53,no,no
0.004523,medio,0.550725,0.076923,0.231255,0.129553,0.539419,sala_comercial,medio,850,no,no
0.039683,medio,0.275362,0.076923,0.189818,0.179366,0.43361,escritorio,alto,6249.14,no,no
0.018799,medio,0.101449,0,0.234412,0.172672,0.363071,sala_comercial,alto,3812.94,no,no
0.060998,medio,0.101449,0,0.090766,0.163221,0.276971,sala_comercial,alto,5703.56,no,no
0.030891,medio,0.086957,0,0.527624,0.156921,0.355571,loja,medio,7448.78,no,no
0.025652,baixo,0.289855,0,0.606156,0,0.493776,escritorio,alto,850,no,no
0.013498,medio,0.275362,0,0.295185,0.184924,0.359613,escritorio,medio,2478.34,no,no
0.018828,alto,0.028986,0,0.005525,0.364836,0.169779,escritorio,baixo,11002.58,no,no
0.032817,baixo,0.536232,0,0.750197,0.106911,0.355571,escritorio,alto,850,no,no
0.072758,baixo,0,0,0.475138,0.169128,0.282503,galpao,baixo,8626.61,no,no
0.044737,baixo,0.275362,0,0.66101,0.073833,0.473375,loja,medio,2999.35,no,no
0.100372,baixo,0.028986,0.538462,0.391081,0.08545,0.465076,galpao,medio,14645.05,no,no
0.013879,baixo,0.347826,0,0.327545,0.097263,0.573306,loja,baixo,850,no,no
0.037467,medio,0.130435,0.230769,0.429755,0.152589,0.362725,escritorio,baixo,4539.94,no,no
0.012047,medio,0.130435,0,0.148777,0.172278,0.281466,sala_comercial,medio,4544.45,no,no
0.030426,baixo,0.57971,0.076923,0.303473,0.054538,0.561895,loja,alto,850,no,no
0.156563,medio,0.42029,0,0.441594,0.330577,0.30982,galpao,medio,25001.53,no,no
0.018916,baixo,0.072464,0,0.372139,0.139398,0.42047,sala_comercial,baixo,2295.42,no,no
0.077118,baixo,0.207802,0.461538,0.782163,0.136247,0.779046,loja,medio,11636.28,no,no
0.010023,baixo,0.217391,0,0.531176,0.111045,0.273859,sala_comercial,medio,850,no,no
0.0219,baixo,0.289855,0,0.630229,0.03229,0.43603,loja,medio,850,no,no
0.030982,baixo,0.492754,0,0.791239,0.058279,0.354426,escritorio,medio,850,no,no
0.011991,alto,0.115942,0,0.249408,0.171884,0.239972,escritorio,alto,5596.96,no,no
0.035554,baixo,0.391304,0,0.651539,0.079937,0.40491,loja,baixo,1476.22,no,no
0.032534,medio,0.207802,0.076923,0.356354,0.150817,0.478562,escritorio,medio,4105.31,no,no
0.096617,alto,0.376812,0.384615,0.068666,0.397913,0.020401,galpao,medio,30540.34,no,no
0.033374,baixo,0.072464,0,0.363852,0.11774,0.255878,escritorio,alto,5217.67,no,no
0.022678,medio,0.246377,0.153846,0.3603,0.200827,0.388313,escritorio,baixo,3665.17,no,no
0.049999,alto,0.173913,0.153846,0.053275,0.357748,0.355571,loja,medio,15490.66,no,no
0.000007,medio,0.057971,0,0.589976,0.030715,0.485823,sala_comercial,alto,850,no,no
0.019492,medio,0.246377,0,0.281373,0.184924,0.106846,sala_comercial,medio,4479.49,no,no
0.039677,medio,0.057971,0,0.460931,0.101989,0.350968,loja,medio,5355.06,no,no
0.037445,baixo,0.26087,0.120447,0.246251,0.11518,0.311203,loja,baixo,4854.28,no,no
0.053936,medio,0.15942,0,0.248619,0.200236,0.330221,loja,medio,12318.96,no,no
0.014516,alto,0.318841,0.076923,0.098264,0.339043,0.239627,loja,medio,8787.03,no,no
0.014998,baixo,0.014493,0.120447,0.597869,0.003544,0.728562,sala_comercial,medio,850,no,no
0.060998,medio,0.173913,0.076923,0.367009,0.192558,0.285615,escritorio,baixo,6839.19,no,no
0.017881,baixo,0.086957,0,0.54262,0.086631,0.410788,escritorio,baixo,850,no,no
0.017374,baixo,0.072464,0,0.471586,0.099626,0.664246,sala_comercial,medio,850,no,no
0.02749,medio,0.463768,0,0.428966,0.095294,0.238935,escritorio,baixo,1662.86,no,no
0.01724,baixo,0.275362,0,0.364122,0.015948,0.587828,sala_comercial,medio,850,no,no
0.024148,medio,0.173913,0,0.391476,0.168537,0.399032,escritorio,alto,2903.68,no,no
0.009613,medio,0.275362,0,0.349645,0.154755,0.315007,sala_comercial,medio,850,no,no
0.032544,alto,0.26087,0.230769,0.196133,0.260484,0.2213,escritorio,alto,15007.58,no,no
0.060998,medio,0.318841,0.076923,0.317285,0.145107,0.177386,sala_comercial,baixo,2970.45,no,no
0.011682,baixo,0.710145,0,0.355564,0.081315,0.713347,sala_comercial,medio,850,no,no
0.773845,medio,0.927536,0.538462,0.361484,0.301437,0.856155,galpao,alto,16326.22,yes,yes
0.181106,baixo,0.028986,0.076923,0.905683,0.149045,0.535961,galpao,alto,21913.75,no,no
0.015942,baixo,0.144928,0.076923,0.539463,0.043316,0.656293,sala_comercial,medio,850,no,no
0.081131,medio,0.086957,0.384615,0.411997,0.201418,0.303596,loja,baixo,14783.63,no,no
0.006251,medio,0.028986,0.230769,0.5,0.181729,0.250692,loja,medio,4024.97,no,no
0.037604,baixo,0.207802,0.153846,0.383978,0.099035,0.631397,loja,baixo,3274.15,no,no
0.060998,medio,0.188406,0,0.286109,0.216972,0.181881,escritorio,baixo,3753.67,no,no
0.011145,baixo,0.115942,0,0.906472,0.041544,0.489281,loja,medio,850,no,no
0.060998,baixo,0.072464,0,0.416732,0.053554,0.633817,sala_comercial,baixo,850,no,no
0.027142,baixo,0.101449,0.153846,0.366219,0.063398,0.405256,escritorio,medio,2009.35,no,no
0.032144,baixo,0.014493,0,0.668903,0.093129,0.701591,escritorio,baixo,2330.66,no,no
0.273245,alto,0.057971,0.153846,0.249408,0.327427,0.207469,galpao,alto,78017.26,yes,no
0.026192,medio,0.043478,0,0.356354,0.210868,0.153527,escritorio,medio,6706.92,no,no
0.016098,baixo,0.333333,0,0.241121,0.126994,0.456432,sala_comercial,baixo,850,no,no
0.000007,alto,0.289855,0,0.092739,0.178578,0.087483,sala_comercial,medio,887.77,no,no
0.011923,baixo,0.173913,0,0.39266,0.184924,0.572268,sala_comercial,baixo,850,no,no
0.021646,medio,0.275362,0.153846,0.215075,0.263241,0.391079,escritorio,medio,4990.9,no,no
0.031444,alto,0.173913,0.076923,0.218232,0.259303,0.164938,escritorio,baixo,10370.14,no,no
0.019056,alto,0.173913,0.153846,0.116417,0.211853,0.134509,sala_comercial,alto,8465.96,no,no
0.71561,medio,0.724638,0,0.335438,0.168734,0.355571,loja,baixo,6042.45,no,yes
0.238517,medio,0.289855,0.461538,0.061563,0.461114,0.278354,galpao,medio,49603.45,yes,no
0.183995,alto,0.207802,0.384615,0.073796,0.515653,0.189142,galpao,medio,47677.45,no,no
0.017637,baixo,0.144928,0,0.487372,0.134082,0.537344,sala_comercial,alto,1587.04,no,no
0.060998,medio,0.130435,0.307692,0.367009,0.35952,0.365145,galpao,medio,37018.7,no,no
0.128721,medio,0.072464,0.076923,0.302289,0.342784,0.356846,loja,baixo,20069.06,no,no
0.055131,medio,0.115942,0,0.37056,0.074227,0.326418,loja,medio,7294.61,no,no
0.002359,alto,0.173913,0,0.007498,0.811183,0.44675,escritorio,baixo,19328,yes,no
0.165935,medio,0.173913,0.307692,0.201263,0.201614,0.225104,galpao,medio,28931.58,no,no
0.050165,medio,0.014493,0.153846,0.312155,0.164206,0.38036,loja,medio,9478.82,no,no
0.26112,baixo,0.246377,0.461538,0.485004,0.198464,0.623098,galpao,medio,35785.51,yes,no
0.022629,alto,0.231884,0,0.119179,0.303209,0.216113,loja,medio,9308.66,no,no
0.052651,medio,0.188406,0.076923,0.480663,0.131916,0.617566,loja,medio,4788.78,no,no
0.036123,medio,0.101449,0.076923,0.387924,0.192558,0.784578,loja,alto,6368.51,no,no
0.05869,medio,0.207802,0.120447,0.254144,0.192951,0.355571,loja,baixo,11613.21,no,no
0.036826,baixo,0.26087,0.153846,0.464088,0.076196,0.627939,loja,medio,2148.02,no,no
0.035866,medio,0.246377,0.076923,0.112076,0.123253,0.266252,escritorio,medio,6385.31,no,no
0.025997,baixo,0.057971,0.076923,0.294002,0.154755,0.606155,sala_comercial,medio,4215.3,no,no
0.060998,medio,0.304348,0,0.144436,0.248868,0.223029,loja,baixo,7083.88,no,no
0.011575,baixo,0.207802,0,0.531965,0.094704,0.456432,sala_comercial,baixo,850,no,no
0.016078,medio,0.202899,0,0.577743,0.054341,0.544606,loja,medio,850,no,no
0.031896,baixo,0.173913,0,0.565904,0.033668,0.568119,escritorio,baixo,850,no,no
0.020465,medio,0.246377,0.153846,0.340963,0.23607,0.288382,sala_comercial,alto,5925.44,no,no
0.065986,baixo,0.376812,0,0.234017,0.142154,0.355571,loja,medio,8420.16,no,no
0.021093,baixo,0.347826,0,0.872534,0.003938,0.624136,escritorio,medio,850,no,no
0.019001,medio,0.623188,0,0.578927,0.136247,0.355571,sala_comercial,medio,850,no,no
0.180757,medio,0.086957,0.692308,0.246251,0.319551,0.443638,galpao,medio,39480.75,yes,no
0.081043,alto,0.207802,0.307692,0.12352,0.425871,0.088866,loja,medio,29488.36,no,no
0.206194,medio,0.42029,0.230769,0.400552,0.196692,0.214039,galpao,medio,33235.37,yes,no
0.044233,medio,0.188406,0.076923,0.362273,0.184924,0.350968,escritorio,baixo,4406.33,no,no
0.011432,baixo,0.347826,0,0.769534,0.00256,0.662172,sala_comercial,medio,850,no,no
0.050871,medio,0.188406,0.230769,0.368193,0.176216,0.23029,loja,medio,11677.29,no,no
0.037175,medio,0.207802,0.230769,0.219416,0.241189,0.235477,loja,baixo,9125.79,no,no
0.031757,medio,0.347826,0.120447,0.228098,0.220713,0.315353,escritorio,medio,6870.7,no,no
0.011214,medio,0.207802,0.076923,0.202841,0.122071,0.181189,sala_comercial,alto,3888.6,no,no
0.004129,baixo,0.289855,0,0.490923,0.125418,0.555671,sala_comercial,baixo,850,no,no
0.019245,baixo,0.130435,0,0.626677,0.031699,0.649723,sala_comercial,alto,850,no,no
0.054203,medio,0.188406,0.153846,0.186267,0.219138,0.2213,escritorio,medio,10795.16,no,no
0.025333,medio,0.072464,0,0.283346,0.160268,0.225795,loja,baixo,6864.56,no,no
0.024295,medio,0.014493,0.153846,0.257301,0.174444,0.282503,galpao,medio,7246.16,no,no
0.769114,baixo,0.666667,0.153846,0.722178,0,0.355571,loja,baixo,7801.92,no,yes
0.066819,medio,0.101449,0.153846,0.331492,0.129356,0.401798,loja,medio,11749.3,no,no
0.019967,alto,0.391304,0,0.07577,0.346919,0.09751,sala_comercial,alto,13299.84,no,no
0.060998,alto,0.130435,0.230769,0.119574,0.256547,0.19917,loja,baixo,15892.58,no,no
0.155652,alto,0.173913,0.230769,0.159826,0.292184,0.164938,galpao,baixo,37308.78,no,no
0.116626,medio,0.362319,0,0.393054,0.254971,0.325726,galpao,medio,19327.25,no,no
0.042157,alto,0.101449,0.076923,0.119179,0.539673,0.134163,escritorio,medio,53525.23,no,no
0.006238,alto,0.188406,0,0.204815,0.314235,0.237898,sala_comercial,alto,5658.62,no,no
0.011067,medio,0.188406,0,0.3603,0.102973,0.39834,sala_comercial,medio,1467.68,no,no
0.012339,medio,0.666667,0.153846,0.393449,0.140973,0.32296,loja,alto,3270.32,no,no
0.017858,medio,0.086957,0.076923,0.310576,0.252215,0.405256,sala_comercial,medio,6344.17,no,no
0.016768,baixo,0.333333,0.076923,0.606551,0.084269,0.696404,sala_comercial,baixo,850,no,no
0.011353,medio,0.26087,0,0.249408,0.184924,0.500346,sala_comercial,medio,3445.96,no,no
0.016534,baixo,0.101449,0.230769,0.590766,0.12404,0.217497,loja,medio,3711.1,no,no
0.033481,baixo,0.144928,0.076923,0.559195,0.050404,0.337828,escritorio,baixo,1059.28,no,no
0.03024,alto,0.207802,0.120447,0.119968,0.293168,0.109613,escritorio,medio,13135.1,no,no
0.183725,medio,0.057971,0.153846,0.204025,0.195905,0.308783,loja,baixo,25008.93,no,no
0.024175,baixo,0.130435,0,0.552486,0.012798,0.601314,escritorio,alto,850,no,no
0.009303,medio,0.072464,0,0.364122,0.07088,0.493776,loja,alto,850,no,no
0.247961,medio,0.028986,0.120447,0.439227,0.278007,0.393154,galpao,medio,41050.1,yes,no
0.0141,alto,0.173913,0,0.041831,0.272888,0.141425,sala_comercial,baixo,6469.92,no,no
0.004321,medio,0.144928,0,0.371744,0.169325,0.321923,sala_comercial,baixo,2036.17,no,no
0.03982,medio,0.086957,0.230769,0,0.206143,0.343707,loja,baixo,10471.71,no,no
0.089887,medio,0.405797,0.153846,0.226519,0.288639,0.282503,galpao,medio,13906.6,no,no
0.014819,baixo,0.362319,0,0.570245,0.051585,0.37621,sala_comercial,medio,850,no,no
0.141051,alto,0.202899,0,0.081294,0.378027,0.176694,galpao,medio,39637.32,no,no
0.019124,medio,0.246377,0,0.243883,0.136838,0.214385,escritorio,alto,4165.01,no,no
0.01602,medio,0.202899,0,0.299526,0.175231,0.461964,sala_comercial,alto,2134.46,no,no
0.291653,baixo,0.072464,0.461538,0.563931,0.229573,0.190526,galpao,medio,41041.97,yes,no
0.017292,medio,0.333333,0,0.3015,0.191179,0.33852,sala_comercial,baixo,3165.06,no,no
0.027734,medio,0.231884,0,0.43015,0.168931,0.243776,loja,alto,7402.68,no,no
0.030728,baixo,0.434783,0,0.427782,0.132113,0.400761,escritorio,medio,2167.47,no,no
0.000007,alto,0.246377,0,0.066693,0.183501,0.11722,sala_comercial,medio,1656.27,no,no
0.375091,baixo,0.144928,0.692308,0.741121,0.184924,0.499308,galpao,alto,68255.89,yes,yes
0.02355,medio,0.043478,0,0.124309,0.180547,0.317082,loja,alto,7281.5,no,no
0.247098,alto,0.275362,0.307692,0.018548,0.498917,0.159405,galpao,medio,56172.41,yes,no
0.061138,medio,0.057971,0.076923,0.282557,0.180941,0.355571,loja,medio,12961.62,no,no
0.010963,medio,0.072464,0,0.519337,0.065564,0.20574,sala_comercial,medio,1132.5,no,no
0.339755,baixo,0.188406,0.538462,0.507893,0.311282,0.487552,loja,medio,45341.48,no,yes
0.159821,medio,0.231884,0.120447,0.364122,0.235086,0.308091,galpao,medio,27533.16,no,no
0.018753,baixo,0.26087,0,0.277427,0.135263,0.570539,loja,medio,850,no,no
0.006267,medio,0.057971,0,0.424625,0.134278,0.505533,sala_comercial,medio,850,no,no
0.067161,alto,0.115942,0.230769,0.213496,0.301437,0.215422,loja,baixo,17852.86,no,no
0.045485,alto,0.202899,0.230769,0.136938,0.270329,0.213001,loja,baixo,16708.59,no,no
0.005893,alto,0.188406,0.307692,0.141279,0.304391,0.106846,sala_comercial,alto,7816.44,no,no
0.042296,medio,0.173913,0,0.10221,0.273873,0.106846,loja,medio,12496.59,no,no
0.145425,medio,0.173913,0.153846,0.400158,0.269935,0.432573,galpao,alto,30362.76,no,no
0.016638,baixo,0.391304,0,0.610892,0.072849,0.489627,sala_comercial,baixo,850,no,no
0.000007,alto,0.231884,0,0.056827,0.291987,0.259682,sala_comercial,baixo,6621.74,no,no
0.015522,alto,0.057971,0.153846,0.211918,0.316795,0.126902,sala_comercial,medio,10539.66,no,no
0.034243,alto,0.652174,0.120447,0.112076,0.306163,0.131397,loja,medio,9663.41,no,no
0.013856,medio,0.318841,0,0,0.304784,0.131397,loja,medio,7125.23,no,no
0.054379,baixo,0.507246,0.230769,0.518153,0.107895,0.546335,loja,medio,5578.22,no,no
0.273326,medio,0.207802,0.461538,0.52723,0.167356,0.526971,galpao,alto,43265.03,yes,no
0.271575,medio,0.42029,0.615385,0.645225,0.167553,0.595436,galpao,medio,34241.99,yes,no
0.035993,medio,0.304348,0,0.367403,0.207718,0.424274,escritorio,alto,6747.08,no,no
0.0226,baixo,0.130435,0,0.458564,0.037212,0.578492,sala_comercial,baixo,850,no,no
0.060998,alto,0.289855,0.153846,0.200868,0.224651,0.26314,loja,alto,12441.43,no,no
0.043774,medio,0.028986,0.230769,0.364122,0.184924,0.37379,loja,baixo,8295.73,no,no
0.017468,baixo,0.202899,0,0.400158,0.114786,0.366528,sala_comercial,alto,907.71,no,no
0.047897,baixo,0.144928,0.153846,0.364122,0.030124,0.655602,loja,medio,2009.48,no,no
0.056162,baixo,0.347826,0,0.696922,0.052373,0.355571,loja,alto,1381.01,no,no
0.009902,medio,0.188406,0,0.383189,0.111242,0.257261,loja,medio,1263.88,no,no
0.05872,medio,0.217391,0.120447,0.294791,0.133688,0.319156,loja,medio,10240.85,no,no
0.000918,baixo,0.449275,0.076923,0.553275,0.073637,0.75899,sala_comercial,medio,850,no,no
0.026576,baixo,0.057971,0.230769,0.408051,0.105336,0.327109,sala_comercial,baixo,4221.74,no,no
0.010146,alto,0.275362,0.076923,0.131413,0.261075,0.087137,loja,baixo,6346.78,no,no
0.021259,medio,0.318841,0,0.460931,0.132113,0.278008,loja,medio,2336.48,no,no
0.053497,baixo,0.246377,0.153846,0.364122,0.226619,0.633472,loja,baixo,10853.13,no,no
0.006788,medio,0.115942,0,0.175217,0.185666,0.177386,sala_comercial,medio,2833.32,no,no
0.01575,medio,0.115942,0.076923,0.196922,0.13546,0.409405,escritorio,medio,3878.09,no,no
0.048746,medio,0.028986,0.120447,0.472376,0.086828,0.319848,loja,medio,6602.56,no,no
0.204333,medio,0.115942,0.692308,0.242305,0.280961,0.311549,galpao,baixo,35261.25,yes,no
0.012564,medio,0.202899,0,0.22573,0.143138,0.266598,sala_comercial,baixo,1522.53,no,no
0.049699,baixo,0.173913,0.076923,0.741121,0.026974,0.652144,loja,medio,2263.36,no,no
0.006088,baixo,0.144928,0,0.391871,0.04115,0.434302,sala_comercial,medio,850,no,no
0.049869,medio,0.207802,0.076923,0.201263,0.130538,0.202282,loja,baixo,8276.7,no,no
0.232019,medio,0.405797,0.384615,0.507893,0.200433,0.295989,galpao,baixo,33676.92,yes,no
0.000007,medio,0.188406,0.076923,0.544988,0.102973,0.428769,sala_comercial,baixo,850,no,no
0.015906,medio,0.188406,0,0.254933,0.143926,0.416667,escritorio,alto,2523.61,no,no
0.015545,baixo,0.26087,0.076923,1,0.037212,0.438105,sala_comercial,medio,850,no,no
0.021269,medio,0.086957,0,0.193765,0.180941,0.295297,sala_comercial,medio,5364.15,no,no
0.000007,medio,0.207802,0,0.128256,0.068714,0.519018,loja,medio,850,no,no
0.028577,medio,0.057971,0,0.433307,0.187635,0.333679,escritorio,baixo,3425.54,no,no
0.01356,baixo,0.275362,0.076923,0.522494,0.062808,0.30982,sala_comercial,baixo,850,no,no
0.002623,medio,0.207802,0,0.008287,0.137232,0.188451,sala_comercial,baixo,2940.66,no,no
0.109259,baixo,0.202899,0.230769,0.600237,0.1709,0.576418,galpao,medio,14279.13,no,no
0.079829,medio,0.086957,0.307692,0.417916,0.202008,0.398686,loja,medio,13833.05,no,no
0.151946,medio,0.26087,0.461538,0.1985,0.330774,0.18603,galpao,baixo,34414.53,no,no
0.028733,medio,0.130435,0.076923,0.174428,0.266588,0.373444,sala_comercial,baixo,7396.57,no,no
0.08937,alto,0.217391,0.461538,0.140489,0.754479,0.108575,galpao,medio,95220.44,yes,no
0.060998,medio,0.289855,0.076923,0.134964,0.133491,0.355571,sala_comercial,medio,2648.88,no,no
0.024103,baixo,0.434783,0.076923,0.756117,0.102185,0.410443,escritorio,alto,850,no,no
0.040556,medio,0.144928,0.307692,0.297948,0.113802,0.463001,loja,medio,7788.37,no,no
0.000007,medio,0.101449,0.153846,0.240331,0.241583,0.125864,escritorio,alto,4532.94,no,no
0.333927,medio,0.202899,0.615385,0.328729,0.41327,0.132434,galpao,alto,68448.29,no,yes
0.060998,medio,0.231884,0.120447,0.491713,0.143926,0.407676,sala_comercial,medio,1004.18,no,no
0.046969,medio,0.028986,0.153846,0.25809,0.184924,0.383817,escritorio,alto,12254.63,no,no
0.021187,alto,0.217391,0,0.125888,0.245521,0.355571,sala_comercial,baixo,6904.45,no,no
0.01042,medio,0.318841,0.076923,0.625888,0.061626,0.334716,sala_comercial,baixo,850,no,no
0.147406,medio,0.362319,0.384615,0.280189,0.33353,0.235131,galpao,baixo,36082.99,no,no
0.002499,alto,0.072464,0,0.146409,0.166962,0.124827,escritorio,baixo,4489.77,no,no
0.004862,medio,0.246377,0,0.439621,0.146289,0.281812,sala_comercial,alto,850,no,no
0.012805,alto,0.15942,0,0.173639,0.216184,0.216805,sala_comercial,baixo,3705.58,no,no
0.022779,alto,0.449275,0.076923,0.02131,0.349084,0.236169,escritorio,medio,11151.98,no,no
0.007322,medio,0.318841,0,0.271507,0.238236,0.32538,sala_comercial,baixo,3503.19,no,no
0.025444,medio,0.101449,0.076923,0.529203,0.112424,0.353389,escritorio,medio,3310.87,no,no
0.016264,medio,0.26087,0,0.364122,0.187242,0.310166,loja,medio,4702.6,no,no
0.026885,alto,0.207802,0.153846,0.217443,0.266785,0,escritorio,alto,14371.95,no,no
0.169183,baixo,0.207802,0,0.316496,0.173066,0.298755,galpao,medio,20311.21,no,no
0.057731,medio,0.130435,0.076923,0.379637,0.223469,0.37621,loja,alto,15856.11,no,no
0.034682,baixo,0.449275,0.076923,0.586819,0.156921,0.553596,escritorio,baixo,3000.77,no,no
0.218026,baixo,0.115942,0.615385,0.560379,0.193148,0.405256,galpao,medio,30116.05,yes,no
0.073025,medio,0.115942,0.230769,0.477901,0.183894,0.313278,loja,medio,14976.95,no,no
0.557472,medio,0.681159,0,0.348066,0.128569,0.953665,sala_comercial,medio,16532.71,no,yes
0.033947,medio,0.275362,0.076923,0.269929,0.227407,0.150069,loja,medio,6955.44,no,no
0.002629,alto,0.15942,0.153846,0.100237,0.558181,0.084025,escritorio,baixo,22531,no,no
0.040702,alto,0.318841,0.076923,0.243094,0.265407,0.134855,loja,baixo,11488.09,no,no
0.000866,baixo,0.207802,0,0.593528,0.033471,0.616528,loja,medio,850,no,no
0.028662,baixo,0.086957,0,0.509077,0.038196,0.585062,loja,baixo,850,no,no
0.009987,alto,0,0.076923,0.178769,0.3418,0.260373,sala_comercial,medio,7982.69,no,no
0.024764,medio,0.521739,0.076923,0.328729,0.207127,0.311203,escritorio,medio,2074.7,no,no
0.034695,baixo,0.202899,0,0.485004,0.019098,0.496888,loja,baixo,850,no,no
0.060998,medio,0.072464,0.076923,0.35517,0.163024,0.299447,sala_comercial,medio,3980.68,no,no
0.03873,baixo,0.144928,0.076923,0.520916,0.112424,0.255878,loja,baixo,4746.83,no,no
0.049302,medio,0.231884,0,0.357932,0.116361,0.378631,loja,baixo,5524.49,no,no
0.039892,baixo,0.188406,0.153846,0.364122,0.055326,0.697787,loja,medio,1329.14,no,no
0.060998,medio,0.072464,0.461538,0.203631,0.632014,0.119986,galpao,baixo,70136.51,no,no
0.049478,alto,0.275362,0.230769,0.067877,0.334712,0.215768,loja,medio,16430.34,no,no
0.038187,baixo,0.086957,0.076923,0.196133,0.184924,0.478562,loja,medio,6606.74,no,no
0.196875,baixo,0.130435,0.769231,0.595501,0.208506,0.569848,galpao,medio,33710.75,yes,no
0.005717,medio,0.028986,0.076923,0.205209,0.152786,0.174274,sala_comercial,medio,3844.03,no,no
0.015551,alto,0.086957,0.076923,0.0809,0.273676,0.231674,escritorio,alto,11861.85,no,no
0.051144,baixo,0.275362,0.076923,0.58011,0.025989,0.559129,loja,baixo,1679.18,no,no
0.002128,baixo,0.173913,0,0.550908,0.03544,0.701936,sala_comercial,alto,850,no,no
0.374596,medio,0.043478,0.538462,0.520521,0.233117,0.383472,galpao,medio,61586.57,no,yes
0.010511,medio,0.101449,0.076923,0.228493,0.205158,0.355571,sala_comercial,baixo,4950.99,no,no
0.056559,medio,0.202899,0.076923,0.50513,0.146092,0.319502,loja,alto,11107.27,no,no
0.220577,medio,0.231884,0.615385,0.261642,0.317976,0.356501,galpao,baixo,36139.27,yes,no
0.037881,medio,0.043478,0.120447,0.047356,0.321323,0.028354,escritorio,medio,14499.91,no,no
0.043103,baixo,0.101449,0.076923,0.474743,0.098838,0.426694,loja,medio,4574.38,no,no
0.013709,medio,0.15942,0.153846,0.505525,0.189014,0.326763,escritorio,alto,3649.36,no,no
0.060998,baixo,0.057971,0.076923,0.792028,0.025399,0.687068,escritorio,medio,2397.12,no,no
0.021291,medio,0.26087,0,0.213102,0.251231,0.048064,loja,alto,9334.57,no,no
0.041711,medio,0.275362,0,0.493686,0.154164,0.342669,loja,medio,6999.89,no,no
0.033292,medio,0.318841,0,0.358721,0.133491,0.366183,loja,baixo,3538.83,no,no
0.02079,medio,0.217391,0,0.282557,0.119315,0.547026,escritorio,medio,1780.77,no,no
0.016225,medio,0.207802,0.076923,0.279006,0.113211,0.246196,escritorio,medio,3049.38,no,no
0.036947,alto,0.42029,0.076923,0.076559,0.253396,0.091978,loja,alto,14105.69,no,no
0.032492,medio,0.086957,0.153846,0.430939,0.130734,0.355571,escritorio,baixo,3456.19,no,no
0.028327,medio,0.217391,0,0.329124,0.188423,0.38935,escritorio,medio,5843.04,no,no
0.009206,alto,0.101449,0,0.364122,0.362079,0.228907,sala_comercial,medio,6731.76,no,no
0.038375,baixo,0.086957,0,0.610497,0.111833,0.330221,loja,baixo,3850.88,no,no
0.018408,medio,0.26087,0.076923,0.531571,0.131325,0.30982,escritorio,baixo,1737.19,no,no
0.046188,medio,0.391304,0.153846,0.130229,0.18862,0.327801,loja,medio,9839.9,no,no
0.010338,baixo,0.144928,0,0.700079,0.184924,0.492739,loja,medio,850,no,no
0.040617,baixo,0.173913,0.153846,0.329519,0.145304,0.549793,loja,medio,7389.85,no,no
0.050149,medio,0.507246,0,0.304657,0.211262,0.19018,loja,medio,8338.44,no,no
0.066435,alto,0.144928,0.153846,0.031965,0.33353,0.237206,loja,baixo,22099.35,no,no
0.031262,baixo,0.347826,0,0.462904,0.11833,0.537344,loja,alto,1967.55,no,no
0.011965,medio,0.173913,0.076923,0.471981,0.184924,0.393845,loja,baixo,1929.61,no,no
0.177171,baixo,0.405797,0.307692,0.727703,0.15948,0.60823,loja,baixo,16404,no,no
0.004507,alto,0.376812,0.230769,0.175612,0.316992,0.235823,sala_comercial,medio,6690.5,no,no
0.060959,medio,0.434783,0.307692,0.505525,0.140382,0.354772,loja,baixo,9220.82,no,no
0.027712,medio,0.405797,0,0.475138,0.109077,0.345436,sala_comercial,medio,850,no,no
0.081085,medio,0.057971,0.153846,0.375296,0.258909,0.341978,loja,baixo,12828.19,no,no
0.01766,alto,0.246377,0,0.170481,0.174641,0.026971,sala_comercial,baixo,4388.96,no,no
0.007341,medio,0.057971,0,0.621547,0.053357,0.371024,loja,medio,850,no,no
0.013394,baixo,0.086957,0,0.631413,0.004332,0.599931,escritorio,medio,850,no,no
0.031018,medio,0.115942,0.076923,0.560773,0.177397,0.536653,escritorio,baixo,4766.46,no,no
0.023055,medio,0.42029,0,0.41397,0.163812,0.365145,escritorio,medio,1331,no,no
0,medio,0.42029,0.076923,0.044594,0.585548,0.109267,loja,baixo,20499.62,no,no
0.23281,medio,0.115942,0.692308,0.410418,0.348494,0.40249,galpao,medio,43026.31,yes,no
0.000007,alto,0.072464,0,0.202841,0.266588,0.244467,sala_comercial,medio,4648.23,no,no
0.21951,medio,0.057971,0,0.355959,0.37212,0.304979,galpao,medio,37255.65,yes,no
0.025222,medio,0.217391,0.153846,0.406077,0.111439,0.284924,sala_comercial,baixo,1315.32,no,no
0.265835,alto,0.086957,0.153846,0.106551,0.547943,0.085062,galpao,baixo,54696.77,yes,no
0.003156,baixo,0.289855,0,0.669692,0.037409,0.208506,sala_comercial,medio,850,no,no
